20
10
101536
0
0
76 82 85 83 149 79 64 70 73 90
1
0
22 27 23 28 37 24 16 14 25 18
2
0
42 38 27 61 44 32 25 34 29 26
3
0
61 46 53 52 36 50 44 46 42 43
4
0
24 15 39 21 19 30 21 25 23 32
5
0
26 22 29 39 34 33 28 22 42 32
6
0
79 87 66 79 73 63 94 103 65 92
7
0
29 27 20 21 19 9 20 15 15 17
8
0
65 54 46 106 65 72 74 66 57 85
9
0
13 8 17 15 19 14 22 17 14 20
10
0
2 1 3 1 1 1 2 1 1 2
11
0
75 75 79 81 62 89 114 55 70 75
12
0
14 25 26 18 20 16 14 30 23 23
13
0
141 150 142 169 177 151 110 184 148 150
14
0
150 132 163 139 121 187 129 139 145 149
15
0
65 69 56 66 62 77 48 49 54 58
16
0
308 179 213 215 185 242 215 239 208 217
17
0
57 50 63 86 72 65 62 42 65 59
18
0
50 31 49 44 45 47 37 30 63 42
19
0
65 67 59 75 75 55 73 67 89 66
